CLT03
Position Depot: Random
Horizon for Depot: Large
Position of customers: Cluster
Distribution of the demand: Medium
Width of time windows: Tight
Distribution of the service: Large

VEHICLE 
NUMBER 	 CAPACITY 
 5 	 	 371 
 
CUSTOMER
CUST NO. 	 XCOORD.  	 YCOORD. 	 DEMAND 	 READY TIME 	 DUE DATE 	 SERVICE TIME 
 0 	 	 535 	 	 904 	 	 0 	 	 0 	 	 4292 	 	 0 
  1 	 	 63 	 	 961 	 	 5 	 	 3656 	 	 3822 	 	 126 
  2 	 	 247 	 	 51 	 	 6 	 	 815 	 	 990 	 	 189 
  3 	 	 106 	 	 269 	 	 10 	 	 977 	 	 1093 	 	 106 
  4 	 	 111 	 	 303 	 	 3 	 	 670 	 	 809 	 	 115 
  5 	 	 178 	 	 308 	 	 2 	 	 3406 	 	 3469 	 	 144 
  6 	 	 131 	 	 933 	 	 6 	 	 2564 	 	 2660 	 	 116 
  7 	 	 30 	 	 892 	 	 92 	 	 406 	 	 555 	 	 142 
  8 	 	 108 	 	 327 	 	 4 	 	 695 	 	 789 	 	 105 
  9 	 	 115 	 	 177 	 	 64 	 	 2611 	 	 2687 	 	 101 
  10 	 	 60 	 	 987 	 	 80 	 	 3454 	 	 3651 	 	 137 
  11 	 	 9 	 	 348 	 	 6 	 	 669 	 	 841 	 	 187 
  12 	 	 92 	 	 944 	 	 5 	 	 308 	 	 489 	 	 100 
  13 	 	 276 	 	 67 	 	 55 	 	 2433 	 	 2538 	 	 154 
  14 	 	 134 	 	 1000 	 	 10 	 	 3098 	 	 3210 	 	 180 
  15 	 	 73 	 	 282 	 	 7 	 	 3196 	 	 3348 	 	 168 
  16 	 	 83 	 	 925 	 	 8 	 	 594 	 	 735 	 	 171 
  17 	 	 160 	 	 46 	 	 7 	 	 1905 	 	 1971 	 	 119 
  18 	 	 150 	 	 252 	 	 9 	 	 769 	 	 832 	 	 173 
  19 	 	 89 	 	 922 	 	 1 	 	 2359 	 	 2457 	 	 131 
  20 	 	 237 	 	 55 	 	 9 	 	 3782 	 	 3836 	 	 155 
  21 	 	 11 	 	 921 	 	 3 	 	 2801 	 	 2961 	 	 172 
  22 	 	 108 	 	 284 	 	 4 	 	 655 	 	 828 	 	 198 
  23 	 	 208 	 	 99 	 	 9 	 	 769 	 	 955 	 	 181 
  24 	 	 72 	 	 905 	 	 7 	 	 624 	 	 817 	 	 133 
  25 	 	 120 	 	 213 	 	 4 	 	 2800 	 	 2857 	 	 130 
  26 	 	 228 	 	 214 	 	 7 	 	 1713 	 	 1855 	 	 147 
  27 	 	 69 	 	 963 	 	 93 	 	 3994 	 	 4114 	 	 123 
  28 	 	 132 	 	 236 	 	 74 	 	 2062 	 	 2236 	 	 112 
  29 	 	 229 	 	 41 	 	 2 	 	 972 	 	 1070 	 	 110 
  30 	 	 57 	 	 939 	 	 9 	 	 1991 	 	 2170 	 	 144 
  31 	 	 68 	 	 944 	 	 2 	 	 904 	 	 1087 	 	 125 
  32 	 	 269 	 	 93 	 	 95 	 	 797 	 	 938 	 	 167 
  33 	 	 57 	 	 790 	 	 8 	 	 2369 	 	 2422 	 	 122 
  34 	 	 23 	 	 243 	 	 4 	 	 3064 	 	 3237 	 	 127 
  35 	 	 95 	 	 203 	 	 78 	 	 2158 	 	 2344 	 	 164 
  36 	 	 116 	 	 227 	 	 7 	 	 3332 	 	 3412 	 	 105 
  37 	 	 180 	 	 319 	 	 6 	 	 1919 	 	 2119 	 	 143 
  38 	 	 148 	 	 237 	 	 69 	 	 746 	 	 848 	 	 138 
  39 	 	 252 	 	 30 	 	 7 	 	 3848 	 	 3965 	 	 111 
  40 	 	 47 	 	 990 	 	 2 	 	 2153 	 	 2294 	 	 118 
  41 	 	 66 	 	 965 	 	 7 	 	 2007 	 	 2127 	 	 159 
  42 	 	 256 	 	 92 	 	 9 	 	 3306 	 	 3407 	 	 123 
  43 	 	 318 	 	 23 	 	 3 	 	 1413 	 	 1609 	 	 124 
  44 	 	 58 	 	 932 	 	 1 	 	 2844 	 	 2903 	 	 111 
  45 	 	 236 	 	 67 	 	 7 	 	 969 	 	 1120 	 	 144 
  46 	 	 63 	 	 244 	 	 78 	 	 795 	 	 892 	 	 180 
  47 	 	 112 	 	 301 	 	 6 	 	 1783 	 	 1978 	 	 143 
  48 	 	 214 	 	 99 	 	 3 	 	 3421 	 	 3522 	 	 160 
  49 	 	 233 	 	 21 	 	 10 	 	 1936 	 	 1995 	 	 144 
  50 	 	 233 	 	 57 	 	 96 	 	 1560 	 	 1758 	 	 108 
  51 	 	 46 	 	 986 	 	 9 	 	 3735 	 	 3804 	 	 129 
  52 	 	 60 	 	 781 	 	 7 	 	 1881 	 	 2057 	 	 188 
  53 	 	 106 	 	 310 	 	 61 	 	 2450 	 	 2558 	 	 184 
  54 	 	 22 	 	 919 	 	 1 	 	 2796 	 	 2927 	 	 149 
  55 	 	 205 	 	 84 	 	 3 	 	 3611 	 	 3685 	 	 130 
  56 	 	 108 	 	 315 	 	 6 	 	 605 	 	 800 	 	 146 
  57 	 	 384 	 	 27 	 	 7 	 	 3488 	 	 3668 	 	 153 
  58 	 	 139 	 	 242 	 	 5 	 	 1669 	 	 1863 	 	 183 
  59 	 	 74 	 	 965 	 	 91 	 	 4051 	 	 4215 	 	 167 
  60 	 	 44 	 	 954 	 	 3 	 	 1724 	 	 1876 	 	 191 
  61 	 	 98 	 	 974 	 	 8 	 	 1282 	 	 1348 	 	 200 
  62 	 	 108 	 	 994 	 	 2 	 	 2739 	 	 2918 	 	 192 
  63 	 	 215 	 	 9 	 	 81 	 	 2112 	 	 2173 	 	 113 
  64 	 	 88 	 	 960 	 	 6 	 	 4106 	 	 4292 	 	 139 
  65 	 	 69 	 	 296 	 	 83 	 	 1519 	 	 1678 	 	 179 
  66 	 	 230 	 	 163 	 	 1 	 	 3596 	 	 3720 	 	 125 
  67 	 	 237 	 	 45 	 	 99 	 	 2958 	 	 3011 	 	 176 
  68 	 	 79 	 	 946 	 	 5 	 	 3483 	 	 3659 	 	 155 
  69 	 	 132 	 	 259 	 	 1 	 	 3235 	 	 3358 	 	 104 
  70 	 	 272 	 	 48 	 	 9 	 	 912 	 	 985 	 	 171 
  71 	 	 29 	 	 280 	 	 88 	 	 2375 	 	 2501 	 	 108 
  72 	 	 68 	 	 244 	 	 8 	 	 1022 	 	 1085 	 	 148 
  73 	 	 69 	 	 961 	 	 54 	 	 1107 	 	 1173 	 	 101 
  74 	 	 218 	 	 11 	 	 8 	 	 3224 	 	 3358 	 	 101 
  75 	 	 120 	 	 268 	 	 72 	 	 1529 	 	 1606 	 	 159 
  76 	 	 19 	 	 940 	 	 6 	 	 491 	 	 568 	 	 193 
  77 	 	 291 	 	 88 	 	 7 	 	 2855 	 	 3033 	 	 172 
  78 	 	 229 	 	 3 	 	 51 	 	 3762 	 	 3859 	 	 177 
  79 	 	 42 	 	 432 	 	 77 	 	 1021 	 	 1191 	 	 187 
  80 	 	 115 	 	 931 	 	 10 	 	 3145 	 	 3224 	 	 172 
  81 	 	 300 	 	 88 	 	 10 	 	 809 	 	 934 	 	 150 
  82 	 	 120 	 	 235 	 	 4 	 	 3330 	 	 3467 	 	 133 
  83 	 	 62 	 	 992 	 	 1 	 	 4010 	 	 4208 	 	 117 
  84 	 	 40 	 	 941 	 	 7 	 	 678 	 	 873 	 	 183 
  85 	 	 94 	 	 960 	 	 2 	 	 424 	 	 488 	 	 140 
  86 	 	 10 	 	 967 	 	 1 	 	 737 	 	 787 	 	 111 
  87 	 	 33 	 	 914 	 	 3 	 	 1573 	 	 1655 	 	 125 
  88 	 	 238 	 	 129 	 	 7 	 	 796 	 	 912 	 	 177 
  89 	 	 274 	 	 53 	 	 2 	 	 1883 	 	 1987 	 	 114 
  90 	 	 192 	 	 132 	 	 9 	 	 2406 	 	 2463 	 	 102 
  91 	 	 322 	 	 33 	 	 71 	 	 3507 	 	 3640 	 	 123 
  92 	 	 127 	 	 266 	 	 9 	 	 3382 	 	 3484 	 	 169 
  93 	 	 52 	 	 922 	 	 6 	 	 688 	 	 753 	 	 104 
  94 	 	 188 	 	 102 	 	 5 	 	 3305 	 	 3387 	 	 158 
  95 	 	 264 	 	 83 	 	 2 	 	 3165 	 	 3354 	 	 118 
  96 	 	 37 	 	 946 	 	 3 	 	 424 	 	 549 	 	 160 
  97 	 	 54 	 	 287 	 	 7 	 	 2417 	 	 2536 	 	 142 
  98 	 	 205 	 	 10 	 	 4 	 	 897 	 	 1048 	 	 134 
  99 	 	 293 	 	 181 	 	 57 	 	 654 	 	 838 	 	 145 
  100 	 	 252 	 	 65 	 	 3 	 	 791 	 	 983 	 	 134 
 